dosen = {rani, dono, joni, budi, john};

matkul = {web, spk, algo, web2, bio};

hari = {kamis, selasa, jumat, rabu, senin};

dosen_matkul = array2d(1..5, 1..5, [1, 1, 0, 0, 0, 0, 0, 1, 1, 1, 1, 0, 1, 0, 1, 1,
    0, 0, 1, 0, 0, 0, 0, 1, 1]);

dosen_hari = array2d(1..5, 1..5, [1, 1, 1, 0, 0, 1, 0, 1, 0, 1, 1, 0, 0, 1, 0, 1,
    1, 1, 1, 1, 1, 0, 0, 1, 0]);

